2 1
3 1
3 2
4 1
4 2
4 3
5 1
5 2
5 3
5 4
6 1
6 2
7 1
7 2
7 3
7 6
8 2
8 3
8 4
8 6
8 7
9 3
9 4
9 5
9 6
9 7
9 8
10 4
10 5
10 6
10 7
10 8
10 9
11 1
11 3
11 6
11 7
12 2
12 4
12 6
12 7
12 8
12 11
13 1
13 3
13 5
13 7
13 8
13 9
13 11
13 12
14 2
14 4
14 8
14 9
14 10
14 11
14 12
14 13
15 3
15 5
15 9
15 10
15 11
15 12
15 13
15 14
16 1
16 4
16 6
16 8
16 11
16 12
17 2
17 5
17 7
17 9
17 11
17 12
17 13
17 16
18 3
18 6
18 8
18 10
18 12
18 13
18 14
18 16
18 17
19 1
19 4
19 7
19 9
19 13
19 14
19 15
19 16
19 17
19 18
20 2
20 5
20 8
20 10
20 14
20 15
20 16
20 17
20 18
20 19
21 1
21 5
21 6
21 9
21 11
21 13
21 16
21 17
22 2
22 7
22 10
22 12
22 14
22 16
22 17
22 18
22 21
23 3
23 8
23 11
23 13
23 15
23 17
23 18
23 19
23 21
23 22
24 4
24 6
24 9
24 12
24 14
24 18
24 19
24 20
24 21
24 22
24 23
25 1
25 5
25 7
25 10
25 13
25 15
25 19
25 20
25 21
25 22
25 23
25 24
5